NAME: random-91-24649
TYPE: TSP
COMMENT: size=91 seed=24649
DIMENSION: 184
EDGE_WEIGHT_TYPE: EUC_2D
NODE_COORD_SECTION
+0 743 27
-0 743 27
+1 166 669
-1 183 571
+2 306 908
-2 116 544
+3 454 14
-3 464 215
+4 902 838
-4 10 579
+5 17 265
-5 642 595
+6 961 281
-6 149 76
+7 893 314
-7 567 885
+8 845 940
-8 169 587
+9 700 33
-9 855 594
+10 0 82
-10 693 921
+11 592 728
-11 829 930
+12 772 914
-12 878 872
+13 72 584
-13 347 722
+14 652 682
-14 53 723
+15 772 789
-15 579 215
+16 456 725
-16 753 100
+17 405 918
-17 775 873
+18 752 409
-18 506 430
+19 369 466
-19 635 533
+20 247 776
-20 244 206
+21 86 56
-21 36 836
+22 854 808
-22 56 977
+23 901 221
-23 258 90
+24 105 639
-24 476 823
+25 281 302
-25 166 807
+26 430 112
-26 507 995
+27 875 7
-27 685 651
+28 662 690
-28 668 917
+29 272 83
-29 680 930
+30 166 597
-30 275 675
+31 41 320
-31 991 259
+32 568 269
-32 997 301
+33 83 230
-33 460 450
+34 309 596
-34 448 975
+35 295 116
-35 886 796
+36 445 185
-36 95 843
+37 957 367
-37 89 172
+38 73 850
-38 403 757
+39 980 596
-39 11 56
+40 304 673
-40 25 907
+41 209 431
-41 516 256
+42 496 455
-42 923 696
+43 250 256
-43 859 675
+44 611 681
-44 286 969
+45 960 77
-45 995 103
+46 189 530
-46 7 977
+47 572 887
-47 904 495
+48 62 491
-48 15 295
+49 108 527
-49 308 79
+50 2 179
-50 78 329
+51 754 178
-51 350 457
+52 978 18
-52 792 921
+53 63 701
-53 16 506
+54 200 168
-54 435 535
+55 582 152
-55 15 542
+56 288 914
-56 547 102
+57 898 31
-57 7 554
+58 677 759
-58 295 319
+59 279 617
-59 303 886
+60 304 109
-60 867 93
+61 987 987
-61 55 550
+62 221 595
-62 698 475
+63 278 637
-63 550 489
+64 913 994
-64 446 534
+65 253 353
-65 331 762
+66 264 581
-66 709 579
+67 607 857
-67 290 393
+68 777 299
-68 569 806
+69 796 209
-69 739 112
+70 117 522
-70 530 208
+71 391 634
-71 591 174
+72 664 378
-72 195 832
+73 800 781
-73 324 208
+74 701 663
-74 660 494
+75 230 703
-75 429 923
+76 623 141
-76 165 486
+77 634 384
-77 583 21
+78 2 853
-78 647 65
+79 18 144
-79 408 145
+80 769 238
-80 212 76
+81 535 422
-81 444 941
+82 929 119
-82 401 702
+83 684 238
-83 32 127
+84 898 977
-84 724 677
+85 494 574
-85 599 881
+86 841 773
-86 315 396
+87 593 390
-87 28 239
+88 969 224
-88 294 853
+89 194 987
-89 377 493
+90 354 102
-90 707 651
+91 664 855
-91 366 164
PRECEDENCE_SECTION
+0 -0
+1 -1
+2 -2
+3 -3
+4 -4
+5 -5
+6 -6
+7 -7
+8 -8
+9 -9
+10 -10
+11 -11
+12 -12
+13 -13
+14 -14
+15 -15
+16 -16
+17 -17
+18 -18
+19 -19
+20 -20
+21 -21
+22 -22
+23 -23
+24 -24
+25 -25
+26 -26
+27 -27
+28 -28
+29 -29
+30 -30
+31 -31
+32 -32
+33 -33
+34 -34
+35 -35
+36 -36
+37 -37
+38 -38
+39 -39
+40 -40
+41 -41
+42 -42
+43 -43
+44 -44
+45 -45
+46 -46
+47 -47
+48 -48
+49 -49
+50 -50
+51 -51
+52 -52
+53 -53
+54 -54
+55 -55
+56 -56
+57 -57
+58 -58
+59 -59
+60 -60
+61 -61
+62 -62
+63 -63
+64 -64
+65 -65
+66 -66
+67 -67
+68 -68
+69 -69
+70 -70
+71 -71
+72 -72
+73 -73
+74 -74
+75 -75
+76 -76
+77 -77
+78 -78
+79 -79
+80 -80
+81 -81
+82 -82
+83 -83
+84 -84
+85 -85
+86 -86
+87 -87
+88 -88
+89 -89
+90 -90
+91 -91
EOF
